CPXPARAM_TimeLimit                               7200
CPXPARAM_Read_DataCheck                          1
CPXPARAM_Output_IntSolFilePrefix                 "solucoes/t_sol_ini_ID000M003J004_ZintTrue_manne/sol"
Found incumbent of value 69.000000 after 0.00 sec. (0.01 ticks)
Tried aggregator 1 time.
Reduced MIP has 48 rows, 31 columns, and 132 nonzeros.
Reduced MIP has 18 binaries, 0 generals, 0 SOSs, and 0 indicators.
Presolve time = 0.00 sec. (0.05 ticks)
Probing time = 0.00 sec. (0.01 ticks)
Tried aggregator 1 time.
Reduced MIP has 48 rows, 31 columns, and 132 nonzeros.
Reduced MIP has 18 binaries, 0 generals, 0 SOSs, and 0 indicators.
Presolve time = 0.00 sec. (0.06 ticks)
Probing time = 0.00 sec. (0.01 ticks)
MIP emphasis: balance optimality and feasibility.
MIP search method: dynamic search.
Parallel mode: deterministic, using up to 8 threads.
Root relaxation solution time = 0.00 sec. (0.07 ticks)

        Nodes                                         Cuts/
   Node  Left     Objective  IInf  Best Integer    Best Bound    ItCnt     Gap

*     0+    0                           69.0000       29.0000            57.97%
New incumbent written to file 'solucoes/t_sol_ini_ID000M003J004_ZintTrue_manne/sol-00001.sol'.
*     0+    0                           51.0000       29.0000            43.14%
New incumbent written to file 'solucoes/t_sol_ini_ID000M003J004_ZintTrue_manne/sol-00002.sol'.
      0     0       29.0000     6       51.0000       29.0000       13   43.14%
      0     0       29.0000     3       51.0000      Cuts: 12       27   43.14%
*     0+    0                           31.0000       29.0000             6.45%
New incumbent written to file 'solucoes/t_sol_ini_ID000M003J004_ZintTrue_manne/sol-00003.sol'.
      0     0       29.0000     2       31.0000       Cuts: 8       46    6.45%
      0     0       29.0000     4       31.0000       Cuts: 6       57    6.45%
*     0+    0                           29.0000       29.0000             0.00%
New incumbent written to file 'solucoes/t_sol_ini_ID000M003J004_ZintTrue_manne/sol-00004.sol'.
      0     0        cutoff             29.0000       29.0000       57    0.00%
Elapsed time = 0.00 sec. (1.27 ticks, tree = 0.01 MB, solutions = 4)

Implied bound cuts applied:  1
Flow cuts applied:  2
Mixed integer rounding cuts applied:  1

Root node processing (before b&c):
  Real time             =    0.00 sec. (1.28 ticks)
Parallel b&c, 8 threads:
  Real time             =    0.00 sec. (0.00 ticks)
  Sync time (average)   =    0.00 sec.
  Wait time (average)   =    0.00 sec.
                          ------------
Total (root+branch&cut) =    0.00 sec. (1.28 ticks)
